<?xml version = "1.0" encoding="UTF-8" standalone="yes"?>
<CPLEXSolution version="1.2">
 <header
   problemName="IloCplex"
   solutionName="p0"
   solutionIndex="-1"
   objectiveValue="759871"
   solutionTypeValue="3"
   solutionTypeString="primal"
   solutionStatusValue="127"
   solutionStatusString="integer feasible solution"
   solutionMethodString="mip"
   primalFeasible="0"
   dualFeasible="0"
   writeLevel="3"/>
 <quality
   epInt="1.0000000000000001e-05"
   epRHS="9.9999999999999995e-07"
   maxIntInfeas="0"
   maxPrimalInfeas="2.5011104298755527e-12"
   maxX="1420"
   maxSlack="158.0000000000025"/>
 <variables>
  <variable name="x1" index="0" value="1420"/>
  <variable name="w0_1" index="2" value="1419.9999999999998"/>
  <variable name="w0_2" index="3" value="1420"/>
  <variable name="w1_0" index="5" value="1419.9999999999984"/>
  <variable name="w1_1" index="6" value="1420"/>
  <variable name="w2_0" index="9" value="1419.9999999999975"/>
  <variable name="w2_1" index="10" value="1419.9999999999998"/>
  <variable name="w3_0" index="13" value="1420"/>
  <variable name="w3_3" index="16" value="1419.9999999999984"/>
  <variable name="w4_1" index="18" value="1419.9999999999998"/>
  <variable name="w4_2" index="19" value="1420"/>
  <variable name="w5_3" index="24" value="1419.9999999999998"/>
  <variable name="w6_0" index="25" value="1420"/>
  <variable name="w6_1" index="26" value="1420"/>
  <variable name="w7_0" index="29" value="1420"/>
  <variable name="w7_1" index="30" value="1419.9999999999991"/>
  <variable name="w7_2" index="31" value="1419.9999999999998"/>
  <variable name="w9_0" index="37" value="1419.9999999999998"/>
  <variable name="w9_2" index="39" value="1419.9999999999998"/>
  <variable name="w10_2" index="43" value="1419.9999999999998"/>
  <variable name="w12_3" index="52" value="1419.9999999999998"/>
  <variable name="w13_0" index="53" value="1419.9999999999984"/>
  <variable name="w13_1" index="54" value="1419.9999999999998"/>
  <variable name="w14_1" index="58" value="1419.9999999999998"/>
  <variable name="w15_1" index="62" value="1420"/>
  <variable name="w15_2" index="63" value="1419.9999999999998"/>
  <variable name="w16_3" index="68" value="1419.9999999999986"/>
  <variable name="w17_0" index="69" value="1419.9999999999998"/>
  <variable name="w17_1" index="70" value="1420"/>
  <variable name="w18_0" index="73" value="1419.9999999999998"/>
  <variable name="w18_1" index="74" value="1419.9999999999998"/>
  <variable name="w19_3" index="80" value="1419.9999999999986"/>
  <variable name="w20_0" index="81" value="1419.9999999999998"/>
  <variable name="w20_3" index="84" value="1420"/>
  <variable name="w21_0" index="85" value="1419.9999999999998"/>
  <variable name="w21_1" index="86" value="1420"/>
  <variable name="w22_1" index="90" value="1419.9999999999998"/>
  <variable name="w23_0" index="93" value="1420"/>
  <variable name="w24_0" index="97" value="1420"/>
  <variable name="w25_2" index="103" value="1419.9999999999998"/>
  <variable name="w26_0" index="105" value="1419.9999999999998"/>
  <variable name="w26_2" index="107" value="1419.9999999999998"/>
  <variable name="w27_0" index="109" value="1419.9999999999998"/>
  <variable name="w27_2" index="111" value="1419.9999999999998"/>
  <variable name="w30_1" index="122" value="1419.9999999999998"/>
  <variable name="w30_2" index="123" value="1419.9999999999998"/>
  <variable name="w31_1" index="126" value="1419.9999999999998"/>
  <variable name="w32_1" index="130" value="1419.9999999999998"/>
  <variable name="w32_2" index="131" value="1419.9999999999998"/>
  <variable name="w33_1" index="134" value="1419.9999999999998"/>
  <variable name="w34_3" index="140" value="1419.9999999999998"/>
  <variable name="w35_1" index="142" value="1419.9999999999998"/>
  <variable name="w36_1" index="146" value="1419.9999999999998"/>
  <variable name="w36_2" index="147" value="1419.9999999999998"/>
  <variable name="w37_1" index="150" value="1419.9999999999998"/>
  <variable name="w38_0" index="153" value="1419.9999999999991"/>
  <variable name="w38_1" index="154" value="1419.9999999999998"/>
  <variable name="w39_1" index="158" value="1419.9999999999998"/>
  <variable name="w39_2" index="159" value="1420"/>
  <variable name="w40_0" index="161" value="1420"/>
  <variable name="w40_1" index="162" value="1419.9999999999998"/>
  <variable name="w41_0" index="165" value="1419.9999999999984"/>
  <variable name="w41_1" index="166" value="1419.9999999999998"/>
  <variable name="w42_0" index="169" value="1419.9999999999998"/>
  <variable name="w42_2" index="171" value="1420"/>
  <variable name="w43_3" index="176" value="1419.9999999999998"/>
  <variable name="w44_0" index="177" value="1419.9999999999998"/>
  <variable name="w45_0" index="181" value="1419.9999999999991"/>
  <variable name="w45_3" index="184" value="1420"/>
  <variable name="w47_0" index="189" value="1419.9999999999998"/>
  <variable name="w47_1" index="190" value="1419.9999999999998"/>
  <variable name="w49_0" index="197" value="1419.9999999999984"/>
  <variable name="w50_0" index="201" value="1419.9999999999998"/>
  <variable name="w51_0" index="205" value="1419.9999999999998"/>
  <variable name="w51_2" index="207" value="1420"/>
  <variable name="w52_0" index="209" value="1419.9999999999998"/>
  <variable name="w52_1" index="210" value="1419.9999999999998"/>
  <variable name="w53_1" index="214" value="1419.9999999999998"/>
  <variable name="w53_2" index="215" value="1419.9999999999998"/>
  <variable name="w54_0" index="217" value="1420"/>
  <variable name="w54_3" index="220" value="1419.9999999999986"/>
  <variable name="w55_2" index="223" value="1419.9999999999998"/>
  <variable name="w56_0" index="225" value="1419.9999999999998"/>
  <variable name="w57_3" index="232" value="1419.9999999999998"/>
  <variable name="w58_0" index="233" value="1419.9999999999984"/>
  <variable name="w58_2" index="235" value="1419.9999999999998"/>
  <variable name="w59_3" index="240" value="1419.9999999999998"/>
  <variable name="w61_1" index="246" value="1419.9999999999998"/>
  <variable name="w61_2" index="247" value="1419.9999999999998"/>
  <variable name="w62_0" index="249" value="1419.9999999999998"/>
  <variable name="w62_1" index="250" value="1420"/>
  <variable name="w63_1" index="254" value="1419.9999999999998"/>
  <variable name="w64_0" index="257" value="1419.9999999999998"/>
  <variable name="w64_3" index="260" value="1419.9999999999998"/>
  <variable name="w66_1" index="266" value="1419.9999999999998"/>
  <variable name="w68_0" index="273" value="1419.9999999999998"/>
  <variable name="w68_3" index="276" value="1419.9999999999998"/>
  <variable name="w69_2" index="279" value="1420"/>
  <variable name="w70_1" index="282" value="1419.9999999999998"/>
  <variable name="w72_2" index="291" value="1419.9999999999998"/>
  <variable name="w73_1" index="294" value="1419.9999999999998"/>
  <variable name="w73_2" index="295" value="1419.9999999999998"/>
  <variable name="w74_0" index="297" value="1419.9999999999998"/>
  <variable name="w74_1" index="298" value="1419.9999999999998"/>
  <variable name="w74_2" index="299" value="1419.9999999999998"/>
  <variable name="w75_2" index="303" value="1419.9999999999998"/>
  <variable name="w77_0" index="309" value="1419.9999999999984"/>
  <variable name="w77_1" index="310" value="1419.9999999999984"/>
  <variable name="w77_2" index="311" value="1419.9999999999984"/>
  <variable name="w78_0" index="313" value="1420"/>
  <variable name="w79_3" index="320" value="1420"/>
  <variable name="w80_0" index="321" value="1419.9999999999998"/>
  <variable name="w80_1" index="322" value="1420"/>
  <variable name="w80_2" index="323" value="1420"/>
  <variable name="w81_1" index="326" value="1419.9999999999998"/>
  <variable name="w81_2" index="327" value="1419.9999999999998"/>
  <variable name="w82_0" index="329" value="1419.9999999999998"/>
  <variable name="w82_1" index="330" value="1419.9999999999998"/>
  <variable name="w83_3" index="336" value="1419.9999999999998"/>
  <variable name="w84_1" index="338" value="1419.9999999999998"/>
  <variable name="w84_2" index="339" value="1419.9999999999998"/>
  <variable name="w85_0" index="341" value="1419.9999999999991"/>
  <variable name="w85_1" index="342" value="1419.9999999999998"/>
  <variable name="w85_2" index="343" value="1420"/>
  <variable name="w86_0" index="345" value="1419.9999999999998"/>
  <variable name="w86_3" index="348" value="1419.9999999999998"/>
  <variable name="w87_1" index="350" value="1419.9999999999998"/>
  <variable name="w87_2" index="351" value="1419.9999999999998"/>
  <variable name="w88_0" index="353" value="1419.9999999999991"/>
  <variable name="w88_1" index="354" value="1419.9999999999998"/>
  <variable name="w89_0" index="357" value="1420"/>
  <variable name="w90_0" index="361" value="1419.9999999999998"/>
  <variable name="w90_3" index="364" value="1420"/>
  <variable name="w92_1" index="370" value="1419.9999999999998"/>
  <variable name="w92_2" index="371" value="1419.9999999999998"/>
  <variable name="w93_1" index="374" value="1419.9999999999998"/>
  <variable name="w94_0" index="377" value="1419.9999999999998"/>
  <variable name="w94_3" index="380" value="1419.9999999999998"/>
  <variable name="w95_3" index="384" value="1419.9999999999998"/>
  <variable name="w96_2" index="387" value="1419.9999999999998"/>
  <variable name="w97_1" index="390" value="1419.9999999999998"/>
  <variable name="w97_2" index="391" value="1419.9999999999998"/>
  <variable name="w98_0" index="393" value="1420"/>
  <variable name="w99_0" index="397" value="1419.9999999999998"/>
  <variable name="w99_1" index="398" value="1419.9999999999998"/>
  <variable name="w99_2" index="399" value="1419.9999999999998"/>
  <variable name="x0_37" index="438" value="1"/>
  <variable name="x1_66" index="567" value="1"/>
  <variable name="x2_61" index="662" value="1"/>
  <variable name="x3_6" index="707" value="1"/>
  <variable name="x4_22" index="823" value="1"/>
  <variable name="x5_8" index="909" value="1"/>
  <variable name="x6_55" index="1056" value="1"/>
  <variable name="x7_31" index="1132" value="1"/>
  <variable name="x8_94" index="1295" value="1"/>
  <variable name="x9_43" index="1344" value="1"/>
  <variable name="x10_57" index="1458" value="1"/>
  <variable name="x11_93" index="1594" value="1"/>
  <variable name="x12_11" index="1612" value="1"/>
  <variable name="x13_53" index="1754" value="1"/>
  <variable name="x14_74" index="1875" value="1"/>
  <variable name="x15_38" index="1939" value="1"/>
  <variable name="x16_15" index="2016" value="1"/>
  <variable name="x17_68" index="2169" value="1"/>
  <variable name="x18_58" index="2259" value="1"/>
  <variable name="x19_13" index="2314" value="1"/>
  <variable name="x20_10" index="2411" value="1"/>
  <variable name="x21_60" index="2561" value="1"/>
  <variable name="x22_64" index="2665" value="1"/>
  <variable name="x23_75" index="2776" value="1"/>
  <variable name="x24_85" index="2886" value="1"/>
  <variable name="x25_56" index="2957" value="1"/>
  <variable name="x26_42" index="3043" value="1"/>
  <variable name="x27_35" index="3136" value="1"/>
  <variable name="x28_90" index="3291" value="1"/>
  <variable name="x29_91" index="3392" value="1"/>
  <variable name="x30_32" index="3433" value="1"/>
  <variable name="x31_70" index="3571" value="1"/>
  <variable name="x32_34" index="3635" value="1"/>
  <variable name="x33_77" index="3778" value="1"/>
  <variable name="x34_14" index="3815" value="1"/>
  <variable name="x35_72" index="3973" value="1"/>
  <variable name="x36_36" index="4037" value="1"/>
  <variable name="x37_78" index="4179" value="1"/>
  <variable name="x38_62" index="4263" value="1"/>
  <variable name="x39_30" index="4331" value="1"/>
  <variable name="x40_63" index="4464" value="1"/>
  <variable name="x41_65" index="4566" value="1"/>
  <variable name="x42_47" index="4648" value="1"/>
  <variable name="x43_21" index="4722" value="1"/>
  <variable name="x44_84" index="4885" value="1"/>
  <variable name="x45_5" index="4906" value="1"/>
  <variable name="x46_95" index="5096" value="1"/>
  <variable name="x47_71" index="5172" value="1"/>
  <variable name="x48_88" index="5289" value="1"/>
  <variable name="x49_87" index="5388" value="1"/>
  <variable name="x50_83" index="5484" value="1"/>
  <variable name="x51_44" index="5545" value="1"/>
  <variable name="x52_46" index="5647" value="1"/>
  <variable name="x53_29" index="5730" value="1"/>
  <variable name="x54_3" index="5804" value="1"/>
  <variable name="x55_51" index="5952" value="1"/>
  <variable name="x56_80" index="6081" value="1"/>
  <variable name="x57_19" index="6120" value="1"/>
  <variable name="x58_33" index="6234" value="1"/>
  <variable name="x59_17" index="6318" value="1"/>
  <variable name="x60_97" index="6498" value="1"/>
  <variable name="x61_24" index="6525" value="1"/>
  <variable name="x62_54" index="6655" value="1"/>
  <variable name="x63_79" index="6780" value="1"/>
  <variable name="x64_2" index="6803" value="1"/>
  <variable name="x65_99" index="7000" value="1"/>
  <variable name="x66_67" index="7068" value="1"/>
  <variable name="x67_96" index="7197" value="1"/>
  <variable name="x68_9" index="7210" value="1"/>
  <variable name="x69_48" index="7349" value="1"/>
  <variable name="x70_76" index="7477" value="1"/>
  <variable name="x71_92" index="7593" value="1"/>
  <variable name="x72_52" index="7653" value="1"/>
  <variable name="x73_41" index="7742" value="1"/>
  <variable name="x74_23" index="7824" value="1"/>
  <variable name="x75_50" index="7951" value="1"/>
  <variable name="x76_98" index="8099" value="1"/>
  <variable name="x77_27" index="8128" value="1"/>
  <variable name="x78_86" index="8287" value="1"/>
  <variable name="x79_12" index="8313" value="1"/>
  <variable name="x80_20" index="8421" value="1"/>
  <variable name="x81_45" index="8546" value="1"/>
  <variable name="x82_69" index="8670" value="1"/>
  <variable name="x83_7" index="8708" value="1"/>
  <variable name="x84_40" index="8841" value="1"/>
  <variable name="x85_18" index="8919" value="1"/>
  <variable name="x86_4" index="9005" value="1"/>
  <variable name="x87_39" index="9140" value="1"/>
  <variable name="x88_59" index="9260" value="1"/>
  <variable name="x89_82" index="9383" value="1"/>
  <variable name="x90_0" index="9401" value="1"/>
  <variable name="x91_89" index="9590" value="1"/>
  <variable name="x92_28" index="9629" value="1"/>
  <variable name="x93_73" index="9774" value="1"/>
  <variable name="x94_1" index="9802" value="1"/>
  <variable name="x95_16" index="9917" value="1"/>
  <variable name="x96_49" index="10050" value="1"/>
  <variable name="x97_26" index="10127" value="1"/>
  <variable name="x98_81" index="10282" value="1"/>
  <variable name="x99_25" index="10326" value="1"/>
  <variable name="v0_1" index="10402" value="1"/>
  <variable name="v0_2" index="10403" value="1"/>
  <variable name="v1_0" index="10405" value="1"/>
  <variable name="v1_1" index="10406" value="1"/>
  <variable name="v2_0" index="10409" value="1"/>
  <variable name="v2_1" index="10410" value="1"/>
  <variable name="v3_0" index="10413" value="1"/>
  <variable name="v3_3" index="10416" value="1"/>
  <variable name="v4_1" index="10418" value="1"/>
  <variable name="v4_2" index="10419" value="1"/>
  <variable name="v5_3" index="10424" value="1"/>
  <variable name="v6_0" index="10425" value="1"/>
  <variable name="v6_1" index="10426" value="1"/>
  <variable name="v7_0" index="10429" value="1"/>
  <variable name="v7_1" index="10430" value="1"/>
  <variable name="v7_2" index="10431" value="1"/>
  <variable name="v9_0" index="10437" value="1"/>
  <variable name="v9_2" index="10439" value="1"/>
  <variable name="v10_2" index="10443" value="1"/>
  <variable name="v12_3" index="10452" value="1"/>
  <variable name="v13_0" index="10453" value="1"/>
  <variable name="v13_1" index="10454" value="1"/>
  <variable name="v14_1" index="10458" value="1"/>
  <variable name="v15_1" index="10462" value="1"/>
  <variable name="v15_2" index="10463" value="1"/>
  <variable name="v16_3" index="10468" value="1"/>
  <variable name="v17_0" index="10469" value="1"/>
  <variable name="v17_1" index="10470" value="1"/>
  <variable name="v18_0" index="10473" value="1"/>
  <variable name="v18_1" index="10474" value="1"/>
  <variable name="v19_3" index="10480" value="1"/>
  <variable name="v20_0" index="10481" value="1"/>
  <variable name="v20_3" index="10484" value="1"/>
  <variable name="v21_0" index="10485" value="1"/>
  <variable name="v21_1" index="10486" value="1"/>
  <variable name="v22_1" index="10490" value="1"/>
  <variable name="v23_0" index="10493" value="1"/>
  <variable name="v24_0" index="10497" value="1"/>
  <variable name="v25_2" index="10503" value="1"/>
  <variable name="v26_0" index="10505" value="1"/>
  <variable name="v26_2" index="10507" value="1"/>
  <variable name="v27_0" index="10509" value="1"/>
  <variable name="v27_2" index="10511" value="1"/>
  <variable name="v30_1" index="10522" value="1"/>
  <variable name="v30_2" index="10523" value="1"/>
  <variable name="v31_1" index="10526" value="1"/>
  <variable name="v32_1" index="10530" value="1"/>
  <variable name="v32_2" index="10531" value="1"/>
  <variable name="v33_1" index="10534" value="1"/>
  <variable name="v34_3" index="10540" value="1"/>
  <variable name="v35_1" index="10542" value="1"/>
  <variable name="v36_1" index="10546" value="1"/>
  <variable name="v36_2" index="10547" value="1"/>
  <variable name="v37_1" index="10550" value="1"/>
  <variable name="v38_0" index="10553" value="1"/>
  <variable name="v38_1" index="10554" value="1"/>
  <variable name="v39_1" index="10558" value="1"/>
  <variable name="v39_2" index="10559" value="1"/>
  <variable name="v40_0" index="10561" value="1"/>
  <variable name="v40_1" index="10562" value="1"/>
  <variable name="v41_0" index="10565" value="1"/>
  <variable name="v41_1" index="10566" value="1"/>
  <variable name="v42_0" index="10569" value="1"/>
  <variable name="v42_2" index="10571" value="1"/>
  <variable name="v43_3" index="10576" value="1"/>
  <variable name="v44_0" index="10577" value="1"/>
  <variable name="v45_0" index="10581" value="1"/>
  <variable name="v45_3" index="10584" value="1"/>
  <variable name="v47_0" index="10589" value="1"/>
  <variable name="v47_1" index="10590" value="1"/>
  <variable name="v49_0" index="10597" value="1"/>
  <variable name="v50_0" index="10601" value="1"/>
  <variable name="v51_0" index="10605" value="1"/>
  <variable name="v51_2" index="10607" value="1"/>
  <variable name="v52_0" index="10609" value="1"/>
  <variable name="v52_1" index="10610" value="1"/>
  <variable name="v53_1" index="10614" value="1"/>
  <variable name="v53_2" index="10615" value="1"/>
  <variable name="v54_0" index="10617" value="1"/>
  <variable name="v54_3" index="10620" value="1"/>
  <variable name="v55_2" index="10623" value="1"/>
  <variable name="v56_0" index="10625" value="1"/>
  <variable name="v57_3" index="10632" value="1"/>
  <variable name="v58_0" index="10633" value="1"/>
  <variable name="v58_2" index="10635" value="1"/>
  <variable name="v59_3" index="10640" value="1"/>
  <variable name="v61_1" index="10646" value="1"/>
  <variable name="v61_2" index="10647" value="1"/>
  <variable name="v62_0" index="10649" value="1"/>
  <variable name="v62_1" index="10650" value="1"/>
  <variable name="v63_1" index="10654" value="1"/>
  <variable name="v64_0" index="10657" value="1"/>
  <variable name="v64_3" index="10660" value="1"/>
  <variable name="v66_1" index="10666" value="1"/>
  <variable name="v68_0" index="10673" value="1"/>
  <variable name="v68_3" index="10676" value="1"/>
  <variable name="v69_2" index="10679" value="1"/>
  <variable name="v70_1" index="10682" value="1"/>
  <variable name="v72_2" index="10691" value="1"/>
  <variable name="v73_1" index="10694" value="1"/>
  <variable name="v73_2" index="10695" value="1"/>
  <variable name="v74_0" index="10697" value="1"/>
  <variable name="v74_1" index="10698" value="1"/>
  <variable name="v74_2" index="10699" value="1"/>
  <variable name="v75_2" index="10703" value="1"/>
  <variable name="v77_0" index="10709" value="1"/>
  <variable name="v77_1" index="10710" value="1"/>
  <variable name="v77_2" index="10711" value="1"/>
  <variable name="v78_0" index="10713" value="1"/>
  <variable name="v79_3" index="10720" value="1"/>
  <variable name="v80_0" index="10721" value="1"/>
  <variable name="v80_1" index="10722" value="1"/>
  <variable name="v80_2" index="10723" value="1"/>
  <variable name="v81_1" index="10726" value="1"/>
  <variable name="v81_2" index="10727" value="1"/>
  <variable name="v82_0" index="10729" value="1"/>
  <variable name="v82_1" index="10730" value="1"/>
  <variable name="v83_3" index="10736" value="1"/>
  <variable name="v84_1" index="10738" value="1"/>
  <variable name="v84_2" index="10739" value="1"/>
  <variable name="v85_0" index="10741" value="1"/>
  <variable name="v85_1" index="10742" value="1"/>
  <variable name="v85_2" index="10743" value="1"/>
  <variable name="v86_0" index="10745" value="1"/>
  <variable name="v86_3" index="10748" value="1"/>
  <variable name="v87_1" index="10750" value="1"/>
  <variable name="v87_2" index="10751" value="1"/>
  <variable name="v88_0" index="10753" value="1"/>
  <variable name="v88_1" index="10754" value="1"/>
  <variable name="v89_0" index="10757" value="1"/>
  <variable name="v90_0" index="10761" value="1"/>
  <variable name="v90_3" index="10764" value="1"/>
  <variable name="v92_1" index="10770" value="1"/>
  <variable name="v92_2" index="10771" value="1"/>
  <variable name="v93_1" index="10774" value="1"/>
  <variable name="v94_0" index="10777" value="1"/>
  <variable name="v94_3" index="10780" value="1"/>
  <variable name="v95_3" index="10784" value="1"/>
  <variable name="v96_2" index="10787" value="1"/>
  <variable name="v97_1" index="10790" value="1"/>
  <variable name="v97_2" index="10791" value="1"/>
  <variable name="v98_0" index="10793" value="1"/>
  <variable name="v99_0" index="10797" value="1"/>
  <variable name="v99_1" index="10798" value="1"/>
  <variable name="v99_2" index="10799" value="1"/>
 </variables>
</CPLEXSolution>
